20
2 0 6
3 0 3
3 1 6
3 2 1
4 1 4
4 2 6
4 3 6
5 0 2
5 1 2
5 3 4
5 4 4
6 0 5
6 1 5
7 0 6
7 1 5
7 2 3
7 3 5
7 4 2
7 6 3
8 1 6
8 2 2
8 3 4
8 6 6
9 3 2
9 4 5
9 5 5
9 6 4
9 8 4
10 0 3
10 3 5
10 5 6
10 6 4
10 7 2
11 3 5
11 5 2
11 8 6
11 9 2
12 7 2
12 10 3
12 11 5
13 0 5
13 1 6
13 2 6
13 4 1
13 7 6
13 8 2
13 9 5
13 10 2
14 0 3
14 4 3
14 6 3
14 8 2
14 9 6
14 10 2
14 12 2
15 0 2
15 1 3
15 2 6
15 3 5
15 4 4
15 5 1
15 8 3
15 10 1
15 11 6
15 12 2
15 14 6
16 0 2
16 1 2
16 2 6
16 3 3
16 4 6
16 6 4
16 7 5
16 11 6
16 12 5
16 13 5
16 14 1
16 15 6
17 0 3
17 1 1
17 3 5
17 4 2
17 8 4
17 11 1
17 16 5
18 1 2
18 2 4
18 8 5
18 9 2
18 11 5
18 13 3
18 14 5
18 15 1
18 16 2
18 17 2
19 2 5
19 3 5
19 5 6
19 6 5
19 7 3
19 9 2
19 18 1
